Set parameter TokenServer to value "hpc-licenses.hpcc.usc.edu"
Set parameter TimeLimit to value 3600
Gurobi Optimizer version 9.5.1 build v9.5.1rc2 (linux64)
Thread count: 20 physical cores, 20 logical processors, using up to 20 threads
Optimize a model with 6007 rows, 4529 columns and 24534 nonzeros
Model fingerprint: 0xba2fc93f
Variable types: 4506 continuous, 23 integer (23 binary)
Coefficient statistics:
  Matrix range     [1e+00, 1e+00]
  Objective range  [3e-06, 1e+00]
  Bounds range     [1e+00, 1e+00]
  RHS range        [1e+00, 1e+02]
Presolve removed 1520 rows and 1515 columns
Presolve time: 0.06s
Presolved: 4487 rows, 3014 columns, 21975 nonzeros
Variable types: 2994 continuous, 20 integer (20 binary)
Found heuristic solution: objective 260.7364153
Found heuristic solution: objective 261.0405046

Root relaxation: objective 2.737753e+02, 2577 iterations, 0.09 seconds (0.11 work units)

    Nodes    |    Current Node    |     Objective Bounds      |     Work
 Expl Unexpl |  Obj  Depth IntInf | Incumbent    BestBd   Gap | It/Node Time

     0     0  273.77534    0    2  261.04050  273.77534  4.88%     -    0s
     0     0  273.70830    0    2  261.04050  273.70830  4.85%     -    0s
     0     0  273.42200    0    2  261.04050  273.42200  4.74%     -    0s
     0     0  273.20076    0    2  261.04050  273.20076  4.66%     -    0s
     0     0  273.15056    0    2  261.04050  273.15056  4.64%     -    0s
     0     0  273.03143    0    2  261.04050  273.03143  4.59%     -    0s
     0     0  273.02854    0    2  261.04050  273.02854  4.59%     -    0s
H    0     0                     262.8366841  272.96451  3.85%     -    0s
     0     0  272.96451    0    2  262.83668  272.96451  3.85%     -    0s
     0     0  272.96427    0    2  262.83668  272.96427  3.85%     -    0s
     0     0  272.26464    0    2  262.83668  272.26464  3.59%     -    0s
     0     0  272.26464    0    2  262.83668  272.26464  3.59%     -    0s
     0     0  272.26464    0    2  262.83668  272.26464  3.59%     -    0s
     0     0  272.26464    0    2  262.83668  272.26464  3.59%     -    0s
     0     0  271.79547    0    4  262.83668  271.79547  3.41%     -    0s
     0     0  271.79547    0    4  262.83668  271.79547  3.41%     -    0s
     0     0  271.79547    0    4  262.83668  271.79547  3.41%     -    0s
     0     0  271.79547    0    4  262.83668  271.79547  3.41%     -    0s
     0     0  271.79547    0    4  262.83668  271.79547  3.41%     -    0s
     0     0  271.79547    0    4  262.83668  271.79547  3.41%     -    0s
     0     0  271.79547    0    4  262.83668  271.79547  3.41%     -    0s
     0     0  271.79547    0    4  262.83668  271.79547  3.41%     -    1s
     0     0  271.79547    0    4  262.83668  271.79547  3.41%     -    1s
H    0     0                     264.4201411  271.79547  2.79%     -    1s
     0     0  271.77864    0    2  264.42014  271.77864  2.78%     -    1s
     0     0  270.55067    0    6  264.42014  270.55067  2.32%     -    1s
     0     0  270.52031    0    7  264.42014  270.52031  2.31%     -    1s
     0     0  270.52031    0    7  264.42014  270.52031  2.31%     -    1s
     0     0  270.52031    0    7  264.42014  270.52031  2.31%     -    1s
     0     0  270.52031    0    7  264.42014  270.52031  2.31%     -    1s
H    0     0                     265.3925997  270.52031  1.93%     -    1s
     0     0  270.52031    0    7  265.39260  270.52031  1.93%     -    1s
     0     0  270.52031    0    7  265.39260  270.52031  1.93%     -    1s
     0     0  270.35528    0    4  265.39260  270.35528  1.87%     -    1s
H    0     0                     265.5132381  270.35528  1.82%     -    1s
     0     0  270.11547    0    6  265.51324  270.11547  1.73%     -    1s
     0     0  270.11547    0    6  265.51324  270.11547  1.73%     -    1s
     0     2  270.11547    0    6  265.51324  270.11547  1.73%     -    1s
*   10     2               5     268.5956741  270.11547  0.57%   345    1s
*   12     2               6     269.2871353  269.98719  0.26%   319    1s

Cutting planes:
  Gomory: 2
  MIR: 129
  Flow cover: 3
  RLT: 8
  Relax-and-lift: 13

Explored 17 nodes (8764 simplex iterations) in 1.98 seconds (1.55 work units)
Thread count was 20 (of 20 available processors)

Solution count 8: 269.287 268.596 265.513 ... 260.736

Optimal solution found (tolerance 1.00e-04)
Best objective 2.692871352759e+02, best bound 2.693065436728e+02, gap 0.0072%



#########node  1
V1.7
#########node  2
0.14965986394557818,0.8503401360544218
#########node  3
1.0,0.0


Total Solving Time 2.439349412918091
obj value 269.28713527592276
Policy Regret train (Sum) 9.912030792665206
Best Treatment Found train (%) 57.599999999999994
treatment classification acc train (%) 28.799999999999997
Policy Regret test (Sum) 38.72832714295484
Best Treatment Found test (%) 81.04
treatment classification acc test (%) 25.619999999999997
